# Solution for model Master Problem
# Objective value = 5.4661713706565649e+02
theta[1] 0
theta[2] 0
theta[3] 0
theta[4] 0
theta[5] 0
theta[6] 5.0251256281404477e-03
theta[7] 0
theta[8] 0
theta[9] 0
theta[10] 0
theta[11] 0
theta[12] 0
theta[13] 0
theta[14] 0
theta[15] 0
theta[16] 0
theta[17] 0
theta[18] 0
theta[19] 0
theta[20] 0
theta[21] 0
theta[22] 0
theta[23] 0
theta[24] 0
theta[25] 0
theta[26] 3.1658291457286453e-01
theta[27] 0
theta[28] 0
theta[29] 6.7336683417085419e-01
theta[30] 0
theta[31] 0
theta[32] 0
theta[33] 0
theta[34] 0.557788944723618
theta[35] 0
theta[36] 3.2663316582914581e-01
theta[37] 3.2663316582914581e-01
theta[38] 0
theta[39] 0
theta[40] 1.5075376884421732e-02
theta[41] 0
theta[42] 2.5125628140703521e-01
theta[43] 3.2663316582914581e-01
theta[44] 0
theta[45] 0
theta[46] 0
theta[47] 1.0050251256281340e-02
theta[48] 0
theta[49] 1.2562814070351763e-01
theta[50] 3.3668341708542693e-01
theta[51] 0
theta[52] 0
theta[53] 0
theta[54] 0
theta[55] 0
theta[56] 0
theta[57] 3.6683417085427139e-01
theta[58] 5.0251256281406864e-02
theta[59] 0
theta[60] 3.4170854271356793e-01
theta[61] 2.4120603015075387e-01
theta[62] 3.3165829145728665e-01
theta[63] 2.0100502512562818e-01
theta[64] 1.1557788944723624e-01
theta[65] 0
theta[66] 3.1658291457286469e-01
theta[67] 7.5376884422110657e-02
theta[68] 2.0100502512562568e-02
theta[69] 2.0100502512562568e-02
